Route #1: 16 63 23 56 49 24 3 44
Route #2: 32 50 18 55 25 31 12
Route #3: 7 35 8 52 34 46
Route #4: 4 45 29 5 48 30
Route #5: 27 57 15 37 20 60 36 47
Route #6: 21 61 28 22 62 2
Route #7: 1 64 42 41 43 33
Route #8: 17 39 9 40 51 6
Route #9: 58 10 38 11 53
Route #10: 13 54 19 59 14 26
Cost 831